c
c LOANDRA:	 an extension of Open-WBO to core-boosted linear search.
c Version:	 July 2019 2018 -- Release: 1.0
c Authors:	 Jeremias Berg, Emir Demirovic, Peter Stuckey
c We thank the developers of Open-WBO for their work
c
c Open-WBO:	 a Modular MaxSAT Solver -- based on Glucose4.1 (core version)
c Version:	 September 2018 -- Release: 2.1
c Authors:	 Ruben Martins, Vasco Manquinho, Ines Lynce
c Contributors:	 Miguel Neves, Saurabh Joshi, Norbert Manthey, Mikolas Janota
c Contact:	 open-wbo@sat.inesc-id.pt -- http://sat.inesc-id.pt/open-wbo/
c
c WARNING: for repeatability, setting FPU to use double precision
c |                                                                                                       |
c ========================================[ Problem Statistics ]===========================================
c |                                                                                                       |
c |  Problem Format:             MaxSAT                                                                   |
c |  Problem Type:           Unweighted                                                                   |
c |  Number of variables:          5190                                                                   |
c |  Number of hard clauses:      36401                                                                   |
c |  Number of soft clauses:       2438                                                                   |
c |  Number of cardinality:           0                                                                   |
c |  Number of PB :                   0                                                                   |
c |  Parse time:                   0.01 s                                                                 |
c |                                                                                                       |
c PMRES ALGORITHM WITH LINEAR SEARCH 
c PMRES LINEAR STRAT=1
c PMRES LINEAR DIVISION=1
c PMRES CORE DIVISION=0
c PMRES CORE LIMIT (-1 = no limit)=30
c PMRES RELAX BEFORE STRAT =0
c PMRES INCREMENTAL LIN DIVISION =0
c PMRES MINIM =1
c PMRES MINIM STRAT =0
c PRE hard clauses before: 38839
c PRE soft literals before: 2438
c PRE time: 0 removed weight: 1638
c PRE hard clauses after: 29257
c PRE soft literals after: 800
c Checking model
c CG best 2268 LB: 1638 at 0
o 2268
c CG GAP: 630 T 0
c CG New weight: 1 at 0
c PMRES CORE LIMIT (-1 = no limit)=30
c Core budget remaining 30
c CG GAP: 629 T 0
c LB : 1639         CS : 1            W  : 1           
c Core budget remaining 30
c CG GAP: 628 T 0
c LB : 1640         CS : 8            W  : 1           
c Core budget remaining 30
c CG GAP: 627 T 0
c LB : 1641         CS : 12           W  : 1           
c Core budget remaining 30
c CG GAP: 626 T 0
c LB : 1642         CS : 7            W  : 1           
c Core budget remaining 30
c CG GAP: 625 T 0
c LB : 1643         CS : 5            W  : 1           
c Core budget remaining 30
c CG GAP: 624 T 0
c LB : 1644         CS : 5            W  : 1           
c Core budget remaining 30
c CG GAP: 623 T 0
c LB : 1645         CS : 5            W  : 1           
c Core budget remaining 30
c CG GAP: 622 T 0
c LB : 1646         CS : 5            W  : 1           
c Core budget remaining 30
c CG GAP: 621 T 0
c LB : 1647         CS : 5            W  : 1           
c Core budget remaining 30
c CG GAP: 620 T 0
c LB : 1648         CS : 14           W  : 1           
c Core budget remaining 30
c CG GAP: 619 T 0
c LB : 1649         CS : 5            W  : 1           
c Core budget remaining 30
c CG GAP: 618 T 0
c LB : 1650         CS : 4            W  : 1           
c Core budget remaining 30
c CG GAP: 617 T 0
c LB : 1651         CS : 4            W  : 1           
c Core budget remaining 30
c CG GAP: 616 T 0
c LB : 1652         CS : 4            W  : 1           
c Core budget remaining 30
c CG GAP: 615 T 0
c LB : 1653         CS : 4            W  : 1           
c Core budget remaining 30
c CG GAP: 614 T 0
c LB : 1654         CS : 4            W  : 1           
c Core budget remaining 30
c CG GAP: 613 T 0
c LB : 1655         CS : 4            W  : 1           
c Core budget remaining 30
c CG GAP: 612 T 0
c LB : 1656         CS : 4            W  : 1           
c Core budget remaining 30
c CG GAP: 611 T 0
c LB : 1657         CS : 4            W  : 1           
c Core budget remaining 30
c CG GAP: 610 T 0
c LB : 1658         CS : 4            W  : 1           
c Core budget remaining 30
c CG GAP: 609 T 0
c LB : 1659         CS : 4            W  : 1           
c Core budget remaining 30
c CG GAP: 608 T 0
c LB : 1660         CS : 4            W  : 1           
c Core budget remaining 30
c CG GAP: 607 T 0
c LB : 1661         CS : 4            W  : 1           
c Core budget remaining 30
c CG GAP: 606 T 0
c LB : 1662         CS : 4            W  : 1           
c Core budget remaining 30
c CG GAP: 605 T 0
c LB : 1663         CS : 4            W  : 1           
c Core budget remaining 30
c CG GAP: 604 T 0
c LB : 1664         CS : 4            W  : 1           
c Core budget remaining 30
c CG GAP: 603 T 0
c LB : 1665         CS : 4            W  : 1           
c Core budget remaining 30
c CG GAP: 602 T 0
c LB : 1666         CS : 7            W  : 1           
c Core budget remaining 30
c CG GAP: 601 T 0
c LB : 1667         CS : 7            W  : 1           
c Core budget remaining 30
c CG GAP: 600 T 0
c LB : 1668         CS : 6            W  : 1           
c Core budget remaining 30
c CG GAP: 599 T 0
c LB : 1669         CS : 6            W  : 1           
c Core budget remaining 30
c CG GAP: 598 T 0
c LB : 1670         CS : 6            W  : 1           
c Core budget remaining 30
c CG GAP: 597 T 0
c LB : 1671         CS : 4            W  : 1           
c Core budget remaining 30
c CG GAP: 596 T 0
c LB : 1672         CS : 4            W  : 1           
c Core budget remaining 30
c CG GAP: 595 T 0
c LB : 1673         CS : 4            W  : 1           
c Core budget remaining 30
c CG GAP: 594 T 0
c LB : 1674         CS : 4            W  : 1           
c Core budget remaining 30
c CG GAP: 593 T 0
c LB : 1675         CS : 4            W  : 1           
c Core budget remaining 30
c CG GAP: 592 T 0
c LB : 1676         CS : 4            W  : 1           
c Core budget remaining 30
c CG GAP: 591 T 0
c LB : 1677         CS : 1            W  : 1           
c Core budget remaining 30
c CG GAP: 590 T 0
c LB : 1678         CS : 1            W  : 1           
c Core budget remaining 30
c CG GAP: 589 T 0
c LB : 1679         CS : 1            W  : 1           
c Core budget remaining 30
c CG GAP: 588 T 0
c LB : 1680         CS : 1            W  : 1           
c Core budget remaining 30
c CG GAP: 587 T 0
c LB : 1681         CS : 1            W  : 1           
c Core budget remaining 30
c CG GAP: 586 T 0
c LB : 1682         CS : 1            W  : 1           
c Core budget remaining 30
c CG GAP: 585 T 0
c LB : 1683         CS : 1            W  : 1           
c Core budget remaining 30
c CG GAP: 584 T 0
c LB : 1684         CS : 1            W  : 1           
c Core budget remaining 30
c CG GAP: 583 T 0
c LB : 1685         CS : 1            W  : 1           
c Core budget remaining 30
c CG GAP: 582 T 0
c LB : 1686         CS : 1            W  : 1           
c Core budget remaining 30
c CG GAP: 581 T 0
c LB : 1687         CS : 1            W  : 1           
c Core budget remaining 30
c CG GAP: 580 T 0
c LB : 1688         CS : 1            W  : 1           
c Core budget remaining 30
c CG GAP: 579 T 0
c LB : 1689         CS : 1            W  : 1           
c Core budget remaining 30
c CG GAP: 578 T 0
c LB : 1690         CS : 1            W  : 1           
c Core budget remaining 30
c CG GAP: 577 T 0
c LB : 1691         CS : 1            W  : 1           
c Core budget remaining 30
c CG GAP: 576 T 0
c LB : 1692         CS : 1            W  : 1           
c Core budget remaining 30
c CG GAP: 575 T 0
c LB : 1693         CS : 1            W  : 1           
c Core budget remaining 30
c CG GAP: 574 T 0
c LB : 1694         CS : 1            W  : 1           
c Core budget remaining 30
c CG GAP: 573 T 0
c LB : 1695         CS : 1            W  : 1           
c Core budget remaining 30
c CG GAP: 572 T 0
c LB : 1696         CS : 1            W  : 1           
c Core budget remaining 30
c CG GAP: 571 T 0
c LB : 1697         CS : 1            W  : 1           
c Core budget remaining 30
c CG GAP: 570 T 0
c LB : 1698         CS : 1            W  : 1           
c Core budget remaining 30
c CG GAP: 569 T 0
c LB : 1699         CS : 1            W  : 1           
c Core budget remaining 30
c CG GAP: 568 T 0
c LB : 1700         CS : 1            W  : 1           
c Core budget remaining 30
c CG GAP: 567 T 0
c LB : 1701         CS : 1            W  : 1           
c Core budget remaining 30
c CG GAP: 566 T 0
c LB : 1702         CS : 1            W  : 1           
c Core budget remaining 30
c CG GAP: 565 T 0
c LB : 1703         CS : 1            W  : 1           
c Core budget remaining 30
c CG GAP: 564 T 0
c LB : 1704         CS : 1            W  : 1           
c Core budget remaining 30
c CG GAP: 563 T 0
c LB : 1705         CS : 1            W  : 1           
c Core budget remaining 30
c CG GAP: 562 T 0
c LB : 1706         CS : 1            W  : 1           
c Core budget remaining 30
c CG GAP: 561 T 0
c LB : 1707         CS : 1            W  : 1           
c Core budget remaining 30
c CG GAP: 560 T 0
c LB : 1708         CS : 1            W  : 1           
c Core budget remaining 30
c CG GAP: 559 T 0
c LB : 1709         CS : 1            W  : 1           
c Core budget remaining 30
c CG GAP: 558 T 0
c LB : 1710         CS : 1            W  : 1           
c Core budget remaining 30
c CG GAP: 557 T 0
c LB : 1711         CS : 1            W  : 1           
c Core budget remaining 30
c CG GAP: 556 T 0
c LB : 1712         CS : 1            W  : 1           
c Core budget remaining 30
c CG GAP: 555 T 0
c LB : 1713         CS : 1            W  : 1           
c Core budget remaining 30
c CG GAP: 554 T 0
c LB : 1714         CS : 1            W  : 1           
c Core budget remaining 30
c CG GAP: 553 T 0
c LB : 1715         CS : 1            W  : 1           
c Core budget remaining 30
c CG GAP: 552 T 0
c LB : 1716         CS : 1            W  : 1           
c Core budget remaining 30
c CG GAP: 551 T 0
c LB : 1717         CS : 1            W  : 1           
c Core budget remaining 30
c CG GAP: 550 T 0
c LB : 1718         CS : 1            W  : 1           
c Core budget remaining 30
c CG GAP: 549 T 0
c LB : 1719         CS : 1            W  : 1           
c Core budget remaining 30
c CG GAP: 548 T 0
c LB : 1720         CS : 1            W  : 1           
c Core budget remaining 30
c CG GAP: 547 T 0
c LB : 1721         CS : 1            W  : 1           
c Core budget remaining 30
c CG GAP: 546 T 0
c LB : 1722         CS : 1            W  : 1           
c Core budget remaining 30
c CG GAP: 545 T 0
c LB : 1723         CS : 1            W  : 1           
c Core budget remaining 30
c CG GAP: 544 T 0
c LB : 1724         CS : 1            W  : 1           
c Core budget remaining 30
c CG GAP: 543 T 0
c LB : 1725         CS : 1            W  : 1           
c Core budget remaining 30
c CG GAP: 542 T 0
c LB : 1726         CS : 1            W  : 1           
c Core budget remaining 30
c CG GAP: 541 T 0
c LB : 1727         CS : 1            W  : 1           
c Core budget remaining 30
c CG GAP: 540 T 0
c LB : 1728         CS : 1            W  : 1           
c Core budget remaining 30
c CG GAP: 539 T 0
c LB : 1729         CS : 1            W  : 1           
c Core budget remaining 30
c CG GAP: 538 T 0
c LB : 1730         CS : 1            W  : 1           
c Core budget remaining 30
c CG GAP: 537 T 0
c LB : 1731         CS : 1            W  : 1           
c Core budget remaining 30
c CG GAP: 536 T 0
c LB : 1732         CS : 1            W  : 1           
c Core budget remaining 30
c CG GAP: 535 T 0
c LB : 1733         CS : 1            W  : 1           
c Core budget remaining 30
c CG GAP: 534 T 0
c LB : 1734         CS : 1            W  : 1           
c Core budget remaining 30
c CG GAP: 533 T 0
c LB : 1735         CS : 1            W  : 1           
c Core budget remaining 30
c CG GAP: 532 T 0
c LB : 1736         CS : 1            W  : 1           
c Core budget remaining 30
c CG GAP: 531 T 0
c LB : 1737         CS : 1            W  : 1           
c Core budget remaining 30
c CG GAP: 530 T 0
c LB : 1738         CS : 1            W  : 1           
c Core budget remaining 30
c CG GAP: 529 T 0
c LB : 1739         CS : 1            W  : 1           
c Core budget remaining 30
c CG GAP: 528 T 0
c LB : 1740         CS : 1            W  : 1           
c Core budget remaining 30
c CG GAP: 527 T 0
c LB : 1741         CS : 1            W  : 1           
c Core budget remaining 30
c CG GAP: 526 T 0
c LB : 1742         CS : 1            W  : 1           
c Core budget remaining 30
c CG GAP: 525 T 0
c LB : 1743         CS : 1            W  : 1           
c Core budget remaining 30
c CG GAP: 524 T 0
c LB : 1744         CS : 1            W  : 1           
c Core budget remaining 30
c CG GAP: 523 T 0
c LB : 1745         CS : 1            W  : 1           
c Core budget remaining 30
c CG GAP: 522 T 0
c LB : 1746         CS : 1            W  : 1           
c Core budget remaining 30
c CG GAP: 521 T 0
c LB : 1747         CS : 1            W  : 1           
c Core budget remaining 30
c CG GAP: 520 T 0
c LB : 1748         CS : 1            W  : 1           
c Core budget remaining 30
c CG GAP: 519 T 0
c LB : 1749         CS : 1            W  : 1           
c Core budget remaining 30
c CG GAP: 518 T 0
c LB : 1750         CS : 1            W  : 1           
c Core budget remaining 30
c CG GAP: 517 T 0
c LB : 1751         CS : 1            W  : 1           
c Core budget remaining 30
c CG GAP: 516 T 0
c LB : 1752         CS : 1            W  : 1           
c Core budget remaining 30
c CG GAP: 515 T 0
c LB : 1753         CS : 1            W  : 1           
c Core budget remaining 30
c CG GAP: 514 T 0
c LB : 1754         CS : 1            W  : 1           
c Core budget remaining 30
c CG GAP: 513 T 0
c LB : 1755         CS : 1            W  : 1           
c Core budget remaining 30
c CG GAP: 512 T 0
c LB : 1756         CS : 1            W  : 1           
c Core budget remaining 30
c CG GAP: 511 T 0
c LB : 1757         CS : 1            W  : 1           
c Core budget remaining 30
c CG GAP: 510 T 0
c LB : 1758         CS : 1            W  : 1           
c Core budget remaining 30
c CG GAP: 509 T 0
c LB : 1759         CS : 1            W  : 1           
c Core budget remaining 30
c CG GAP: 508 T 0
c LB : 1760         CS : 1            W  : 1           
c Core budget remaining 30
c CG GAP: 507 T 0
c LB : 1761         CS : 1            W  : 1           
c Core budget remaining 30
c CG GAP: 506 T 0
c LB : 1762         CS : 1            W  : 1           
c Core budget remaining 30
c CG GAP: 505 T 0
c LB : 1763         CS : 1            W  : 1           
c Core budget remaining 30
c CG GAP: 504 T 0
c LB : 1764         CS : 1            W  : 1           
c Core budget remaining 30
c CG GAP: 503 T 0
c LB : 1765         CS : 1            W  : 1           
c Core budget remaining 30
c CG GAP: 502 T 0
c LB : 1766         CS : 1            W  : 1           
c Core budget remaining 30
c CG GAP: 501 T 0
c LB : 1767         CS : 1            W  : 1           
c Core budget remaining 30
c CG GAP: 500 T 0
c LB : 1768         CS : 1            W  : 1           
c Core budget remaining 30
c CG GAP: 499 T 0
c LB : 1769         CS : 1            W  : 1           
c Core budget remaining 30
c CG GAP: 498 T 0
c LB : 1770         CS : 1            W  : 1           
c Core budget remaining 30
c CG GAP: 497 T 0
c LB : 1771         CS : 1            W  : 1           
c Core budget remaining 30
c CG GAP: 496 T 0
c LB : 1772         CS : 1            W  : 1           
c Core budget remaining 30
c CG GAP: 495 T 0
c LB : 1773         CS : 1            W  : 1           
c Core budget remaining 30
c CG GAP: 494 T 0
c LB : 1774         CS : 1            W  : 1           
c Core budget remaining 30
c CG GAP: 493 T 0
c LB : 1775         CS : 1            W  : 1           
c Core budget remaining 30
c CG GAP: 492 T 0
c LB : 1776         CS : 1            W  : 1           
c Core budget remaining 30
c CG GAP: 491 T 0
c LB : 1777         CS : 1            W  : 1           
c Core budget remaining 30
c CG GAP: 490 T 0
c LB : 1778         CS : 1            W  : 1           
c Core budget remaining 30
c CG GAP: 489 T 0
c LB : 1779         CS : 1            W  : 1           
c Core budget remaining 30
c CG GAP: 488 T 0
c LB : 1780         CS : 1            W  : 1           
c Core budget remaining 30
c CG GAP: 487 T 0
c LB : 1781         CS : 1            W  : 1           
c Core budget remaining 30
c CG GAP: 486 T 0
c LB : 1782         CS : 1            W  : 1           
c Core budget remaining 30
c CG GAP: 485 T 0
c LB : 1783         CS : 1            W  : 1           
c Core budget remaining 30
c CG GAP: 484 T 0
c LB : 1784         CS : 1            W  : 1           
c Core budget remaining 30
c CG GAP: 483 T 0
c LB : 1785         CS : 1            W  : 1           
c Core budget remaining 30
c CG GAP: 482 T 0
c LB : 1786         CS : 1            W  : 1           
c Core budget remaining 30
c CG GAP: 481 T 0
c LB : 1787         CS : 1            W  : 1           
c Core budget remaining 30
c CG GAP: 480 T 0
c LB : 1788         CS : 1            W  : 1           
c Core budget remaining 30
c CG GAP: 479 T 0
c LB : 1789         CS : 1            W  : 1           
c Core budget remaining 30
c CG GAP: 478 T 0
c LB : 1790         CS : 1            W  : 1           
c Core budget remaining 30
c CG GAP: 477 T 0
c LB : 1791         CS : 1            W  : 1           
c Core budget remaining 30
c CG GAP: 476 T 0
c LB : 1792         CS : 1            W  : 1           
c Core budget remaining 30
c CG GAP: 475 T 0
c LB : 1793         CS : 1            W  : 1           
c Core budget remaining 30
c CG GAP: 474 T 0
c LB : 1794         CS : 1            W  : 1           
c Core budget remaining 30
c CG GAP: 473 T 0
c LB : 1795         CS : 1            W  : 1           
c Core budget remaining 30
c CG GAP: 472 T 0
c LB : 1796         CS : 1            W  : 1           
c Core budget remaining 30
c CG GAP: 471 T 0
c LB : 1797         CS : 1            W  : 1           
c Core budget remaining 30
c CG GAP: 470 T 0
c LB : 1798         CS : 1            W  : 1           
c Core budget remaining 30
c CG GAP: 469 T 0
c LB : 1799         CS : 1            W  : 1           
c Core budget remaining 30
c CG GAP: 468 T 0
c LB : 1800         CS : 1            W  : 1           
c Core budget remaining 30
c CG GAP: 467 T 0
c LB : 1801         CS : 1            W  : 1           
c Core budget remaining 30
c CG GAP: 466 T 0
c LB : 1802         CS : 1            W  : 1           
c Core budget remaining 30
c CG GAP: 465 T 0
c LB : 1803         CS : 1            W  : 1           
c Core budget remaining 30
c CG GAP: 464 T 0
c LB : 1804         CS : 1            W  : 1           
c Core budget remaining 30
c CG GAP: 463 T 0
c LB : 1805         CS : 1            W  : 1           
c Core budget remaining 30
c CG GAP: 462 T 0
c LB : 1806         CS : 1            W  : 1           
c Core budget remaining 30
c CG GAP: 461 T 0
c LB : 1807         CS : 1            W  : 1           
c Core budget remaining 30
c CG GAP: 460 T 0
c LB : 1808         CS : 1            W  : 1           
c Core budget remaining 30
c CG GAP: 459 T 0
c LB : 1809         CS : 1            W  : 1           
c Core budget remaining 30
c CG GAP: 458 T 0
c LB : 1810         CS : 1            W  : 1           
c Core budget remaining 30
c CG GAP: 457 T 0
c LB : 1811         CS : 1            W  : 1           
c Core budget remaining 30
c CG GAP: 456 T 0
c LB : 1812         CS : 1            W  : 1           
c Core budget remaining 30
c CG GAP: 455 T 0
c LB : 1813         CS : 1            W  : 1           
c Core budget remaining 30
c CG GAP: 454 T 0
c LB : 1814         CS : 1            W  : 1           
c Core budget remaining 30
c CG GAP: 453 T 0
c LB : 1815         CS : 1            W  : 1           
c Core budget remaining 30
c CG GAP: 452 T 0
c LB : 1816         CS : 1            W  : 1           
c Core budget remaining 30
c CG GAP: 451 T 0
c LB : 1817         CS : 1            W  : 1           
c Core budget remaining 30
c CG GAP: 450 T 0
c LB : 1818         CS : 1            W  : 1           
c Core budget remaining 30
c CG GAP: 449 T 0
c LB : 1819         CS : 1            W  : 1           
c Core budget remaining 30
c CG GAP: 448 T 0
c LB : 1820         CS : 1            W  : 1           
c Core budget remaining 30
c CG GAP: 447 T 0
c LB : 1821         CS : 1            W  : 1           
c Core budget remaining 30
c CG GAP: 446 T 0
c LB : 1822         CS : 1            W  : 1           
c Core budget remaining 30
c CG GAP: 445 T 0
c LB : 1823         CS : 1            W  : 1           
c Core budget remaining 30
c CG GAP: 444 T 0
c LB : 1824         CS : 1            W  : 1           
c Core budget remaining 30
c CG GAP: 443 T 0
c LB : 1825         CS : 1            W  : 1           
c Core budget remaining 30
c CG GAP: 442 T 0
c LB : 1826         CS : 1            W  : 1           
c Core budget remaining 30
c CG GAP: 441 T 0
c LB : 1827         CS : 1            W  : 1           
c Core budget remaining 30
c CG GAP: 440 T 0
c LB : 1828         CS : 1            W  : 1           
c Core budget remaining 30
c CG GAP: 439 T 0
c LB : 1829         CS : 1            W  : 1           
c Core budget remaining 30
c CG GAP: 438 T 0
c LB : 1830         CS : 1            W  : 1           
c Core budget remaining 30
c CG GAP: 437 T 0
c LB : 1831         CS : 1            W  : 1           
c Core budget remaining 30
c CG GAP: 436 T 0
c LB : 1832         CS : 1            W  : 1           
c Core budget remaining 30
c CG GAP: 435 T 0
c LB : 1833         CS : 1            W  : 1           
c Core budget remaining 30
c CG GAP: 434 T 0
c LB : 1834         CS : 1            W  : 1           
c Core budget remaining 30
c CG GAP: 433 T 0
c LB : 1835         CS : 1            W  : 1           
c Core budget remaining 30
c CG GAP: 432 T 0
c LB : 1836         CS : 1            W  : 1           
c Core budget remaining 30
c CG GAP: 431 T 0
c LB : 1837         CS : 1            W  : 1           
c Core budget remaining 30
c CG GAP: 430 T 0
c LB : 1838         CS : 1            W  : 1           
c Core budget remaining 30
c CG GAP: 429 T 0
c LB : 1839         CS : 4            W  : 1           
c Core budget remaining 30
c CG GAP: 428 T 0
c LB : 1840         CS : 1            W  : 1           
c Core budget remaining 30
c CG GAP: 427 T 0
c LB : 1841         CS : 1            W  : 1           
c Core budget remaining 30
c CG GAP: 426 T 0
c LB : 1842         CS : 1            W  : 1           
c Core budget remaining 30
c CG GAP: 425 T 0
c LB : 1843         CS : 1            W  : 1           
c Core budget remaining 30
c CG GAP: 424 T 0
c LB : 1844         CS : 1            W  : 1           
c Core budget remaining 30
c CG GAP: 423 T 0
c LB : 1845         CS : 1            W  : 1           
c Core budget remaining 30
c CG GAP: 422 T 0
c LB : 1846         CS : 1            W  : 1           
c Core budget remaining 30
c CG GAP: 421 T 0
c LB : 1847         CS : 1            W  : 1           
c Core budget remaining 30
c CG GAP: 420 T 0
c LB : 1848         CS : 1            W  : 1           
c Core budget remaining 30
c CG GAP: 419 T 0
c LB : 1849         CS : 1            W  : 1           
c Core budget remaining 30
c CG GAP: 418 T 0
c LB : 1850         CS : 1            W  : 1           
c Core budget remaining 30
c CG GAP: 417 T 0
c LB : 1851         CS : 1            W  : 1           
c Core budget remaining 30
c CG GAP: 416 T 0
c LB : 1852         CS : 1            W  : 1           
c Core budget remaining 30
c CG GAP: 415 T 0
c LB : 1853         CS : 1            W  : 1           
c Core budget remaining 30
c CG GAP: 414 T 0
c LB : 1854         CS : 1            W  : 1           
c Core budget remaining 30
c CG GAP: 413 T 0
c LB : 1855         CS : 1            W  : 1           
c Core budget remaining 30
c CG GAP: 412 T 0
c LB : 1856         CS : 1            W  : 1           
c Core budget remaining 30
c CG GAP: 411 T 0
c LB : 1857         CS : 1            W  : 1           
c Core budget remaining 30
c CG GAP: 410 T 0
c LB : 1858         CS : 1            W  : 1           
c Core budget remaining 30
c CG GAP: 409 T 0
c LB : 1859         CS : 1            W  : 1           
c Core budget remaining 30
c CG GAP: 408 T 0
c LB : 1860         CS : 1            W  : 1           
c Core budget remaining 30
c CG GAP: 407 T 0
c LB : 1861         CS : 1            W  : 1           
c Core budget remaining 30
c CG GAP: 406 T 0
c LB : 1862         CS : 1            W  : 1           
c Core budget remaining 30
c CG GAP: 405 T 0
c LB : 1863         CS : 1            W  : 1           
c Core budget remaining 30
c CG GAP: 404 T 0
c LB : 1864         CS : 1            W  : 1           
c Core budget remaining 30
c CG GAP: 403 T 0
c LB : 1865         CS : 5            W  : 1           
c Core budget remaining 30
c CG GAP: 402 T 0
c LB : 1866         CS : 3            W  : 1           
c Core budget remaining 30
c CG GAP: 401 T 0
c LB : 1867         CS : 3            W  : 1           
c Core budget remaining 30
c CG GAP: 400 T 0
c LB : 1868         CS : 3            W  : 1           
c Core budget remaining 30
c CG GAP: 399 T 0
c LB : 1869         CS : 4            W  : 1           
c Core budget remaining 30
c CG GAP: 398 T 0
c LB : 1870         CS : 4            W  : 1           
c Core budget remaining 30
c CG GAP: 397 T 0
c LB : 1871         CS : 4            W  : 1           
c Core budget remaining 30
c CG GAP: 396 T 0
c LB : 1872         CS : 4            W  : 1           
c Core budget remaining 30
c CG GAP: 395 T 0
c LB : 1873         CS : 4            W  : 1           
c Core budget remaining 30
c CG GAP: 394 T 0
c LB : 1874         CS : 4            W  : 1           
c Core budget remaining 30
c CG GAP: 393 T 0
c LB : 1875         CS : 4            W  : 1           
c Core budget remaining 30
c CG GAP: 392 T 0
c LB : 1876         CS : 3            W  : 1           
c Core budget remaining 30
c CG GAP: 391 T 0
c LB : 1877         CS : 3            W  : 1           
c Core budget remaining 30
c CG GAP: 390 T 0
c LB : 1878         CS : 3            W  : 1           
c Core budget remaining 30
c CG GAP: 389 T 0
c LB : 1879         CS : 3            W  : 1           
c Core budget remaining 30
c CG GAP: 388 T 0
c LB : 1880         CS : 3            W  : 1           
c Core budget remaining 30
c CG GAP: 387 T 0
c LB : 1881         CS : 3            W  : 1           
c Core budget remaining 30
c CG GAP: 386 T 0
c LB : 1882         CS : 3            W  : 1           
c Core budget remaining 30
c CG GAP: 385 T 0
c LB : 1883         CS : 3            W  : 1           
c Core budget remaining 30
c CG GAP: 384 T 0
c LB : 1884         CS : 3            W  : 1           
c Core budget remaining 30
c SAT-During core guided phase at 0
c Checking model
c CG best 1965 LB: 1884 at 0
o 1965
c CG GAP: 81 T 0
c Hardening with gap: 81
c Hardened in total: 0 clauses
c Hardening again at gap 1
c Strat 2 Relax
c Updating solver at 0
c Starting lin search with: LB: 1884 UB: 1965 UB - LB: 81 Time 0
c Deleting solver
c CG New factor 1
c Extending best model to full formula
c Checking model
c Reduced cost 81 gap 81
c Building new PB
c Considering 554 of 554 soft clauses
c Minimizing in init
c Minimization time 0 init minsize 81 skipped 0
c Reduced cost 80 gap 81
c DIF before minim: 81 after 80
c Encoding PB with UB: 80 obj size 554
c Encoding Done
c Setting Card Vars currently: 10375 / orig 5988
c Checking model
c LIN best 1964 LB: 1884 at 0
o 1964
c LIN GAP: 80 T 0
c CardVars DONE  
c SAT Call at 0
c Reduced cost 80 gap 80
c Checking model
c BOUND UPDATE RHS: 79 at 0
c SAT Call at 0
c Reduced cost 79 gap 80
c Checking model
c LIN best 1963 LB: 1884 at 0
o 1963
c LIN GAP: 79 T 0
c BOUND UPDATE RHS: 78 at 0
c SAT Call at 0
c Reduced cost 78 gap 79
c Checking model
c LIN best 1962 LB: 1884 at 0
o 1962
c LIN GAP: 78 T 0
c BOUND UPDATE RHS: 77 at 0
c SAT Call at 0
c Reduced cost 77 gap 78
c Checking model
c LIN best 1961 LB: 1884 at 0
o 1961
c LIN GAP: 77 T 0
c BOUND UPDATE RHS: 76 at 0
c SAT Call at 0
c Reduced cost 76 gap 77
c Checking model
c LIN best 1960 LB: 1884 at 0
o 1960
c LIN GAP: 76 T 0
c BOUND UPDATE RHS: 75 at 0
c SAT Call at 0
c Reduced cost 75 gap 76
c Checking model
c LIN best 1959 LB: 1884 at 0
o 1959
c LIN GAP: 75 T 0
c BOUND UPDATE RHS: 74 at 0
c SAT Call at 0
c Reduced cost 74 gap 75
c Checking model
c LIN best 1958 LB: 1884 at 0
o 1958
c LIN GAP: 74 T 0
c BOUND UPDATE RHS: 73 at 0
c SAT Call at 0
c Reduced cost 73 gap 74
c Checking model
c LIN best 1957 LB: 1884 at 0
o 1957
c LIN GAP: 73 T 0
c BOUND UPDATE RHS: 72 at 0
c SAT Call at 0
c Reduced cost 72 gap 73
c Checking model
c LIN best 1956 LB: 1884 at 0
o 1956
c LIN GAP: 72 T 0
c BOUND UPDATE RHS: 71 at 0
c SAT Call at 0
c Reduced cost 71 gap 72
c Checking model
c LIN best 1955 LB: 1884 at 0
o 1955
c LIN GAP: 71 T 0
c BOUND UPDATE RHS: 70 at 0
c SAT Call at 0
c Reduced cost 70 gap 71
c Checking model
c LIN best 1954 LB: 1884 at 0
o 1954
c LIN GAP: 70 T 0
c BOUND UPDATE RHS: 69 at 0
c SAT Call at 0
c Reduced cost 69 gap 70
c Checking model
c LIN best 1953 LB: 1884 at 0
o 1953
c LIN GAP: 69 T 0
c BOUND UPDATE RHS: 68 at 0
c SAT Call at 0
c Reduced cost 68 gap 69
c Checking model
c LIN best 1952 LB: 1884 at 0
o 1952
c LIN GAP: 68 T 0
c BOUND UPDATE RHS: 67 at 0
c SAT Call at 0
c Reduced cost 67 gap 68
c Checking model
c LIN best 1951 LB: 1884 at 0
o 1951
c LIN GAP: 67 T 0
c BOUND UPDATE RHS: 66 at 0
c SAT Call at 0
c Reduced cost 66 gap 67
c Checking model
c LIN best 1950 LB: 1884 at 0
o 1950
c LIN GAP: 66 T 0
c BOUND UPDATE RHS: 65 at 0
c SAT Call at 0
c Reduced cost 65 gap 66
c Checking model
c LIN best 1949 LB: 1884 at 0
o 1949
c LIN GAP: 65 T 0
c BOUND UPDATE RHS: 64 at 0
c SAT Call at 0
c Reduced cost 64 gap 65
c Checking model
c LIN best 1948 LB: 1884 at 0
o 1948
c LIN GAP: 64 T 0
c BOUND UPDATE RHS: 63 at 0
c SAT Call at 0
c Reduced cost 63 gap 64
c Checking model
c LIN best 1947 LB: 1884 at 0
o 1947
c LIN GAP: 63 T 0
c BOUND UPDATE RHS: 62 at 0
c SAT Call at 0
c Reduced cost 62 gap 63
c Checking model
c LIN best 1946 LB: 1884 at 0
o 1946
c LIN GAP: 62 T 0
c BOUND UPDATE RHS: 61 at 0
c SAT Call at 0
c Reduced cost 61 gap 62
c Checking model
c LIN best 1945 LB: 1884 at 0
o 1945
c LIN GAP: 61 T 0
c BOUND UPDATE RHS: 60 at 0
c SAT Call at 0
c Reduced cost 60 gap 61
c Checking model
c LIN best 1944 LB: 1884 at 0
o 1944
c LIN GAP: 60 T 0
c BOUND UPDATE RHS: 59 at 0
c SAT Call at 0
c Reduced cost 59 gap 60
c Checking model
c LIN best 1943 LB: 1884 at 0
o 1943
c LIN GAP: 59 T 0
c BOUND UPDATE RHS: 58 at 0
c SAT Call at 0
c Reduced cost 58 gap 59
c Checking model
c LIN best 1942 LB: 1884 at 0
o 1942
c LIN GAP: 58 T 0
c BOUND UPDATE RHS: 57 at 0
c SAT Call at 0
c Reduced cost 57 gap 58
c Checking model
c LIN best 1941 LB: 1884 at 0
o 1941
c LIN GAP: 57 T 0
c BOUND UPDATE RHS: 56 at 0
c SAT Call at 0
c Reduced cost 56 gap 57
c Checking model
c LIN best 1940 LB: 1884 at 0
o 1940
c LIN GAP: 56 T 0
c BOUND UPDATE RHS: 55 at 0
c SAT Call at 0
c Reduced cost 55 gap 56
c Checking model
c LIN best 1939 LB: 1884 at 0
o 1939
c LIN GAP: 55 T 0
c BOUND UPDATE RHS: 54 at 0
c SAT Call at 0
c Reduced cost 54 gap 55
c Checking model
c LIN best 1938 LB: 1884 at 0
o 1938
c LIN GAP: 54 T 0
c BOUND UPDATE RHS: 53 at 0
c SAT Call at 0
c Reconstructing in print answer
c Reconstruction time: 0
c new cost: 1938
s OPTIMUM FOUND
v 000100101000001000100001100011111111111111111111111111111111111111111111111111111111111111111111111111111111111111111111111111111111011111111111111111111111111111111111111111111111111111111111111111111111111111111111111111111111111111111111111111111111111111111111111111111111111111111111111111111111111111111111111111111111111111111111111111111111111111111111111111111111111111100011010001101000110101011110001101010111100011010101111000110101011110101111000110100011010001101010111100011010101111010110100011010101110000110100011010001101000110100011010001101000110100011010001101010111101011110101111010110100011010101111000110100011010001101010111101011110101111000110101011010101111010111101011110101111000110101111110101110000000001011000000000000010000000000000001010111000001000000100000000000011000000100000000001011100101000000000000001000000000000000100011000000000010111000001000001100000000000001000001100000110000000010000100000010000001000000001000110100001000000000000000000001000001100000000000000000001000010110000000000000000000000000011000000100000000000011010000000100000001000000010000000100000001000000010000000100000001000000010000000100000001000000010000000100000001000000010000000100000001000000010000000100000001000000010000000100000001000000010000000100000001000000010000000100000001000000010000000100000001000000010000000100000001000000010000000100000001000000010000000100000001000000010000000100000001000000010000000100000001000000010000000100000000010000000100000001000000010000000100000001000000010000000100000001000000010000000100000001000000010000000100000001000000010000000100000001000000010000000100000000000010010000000100000001000000010000000100000001000000010000000100000001000000010000000100000001000000010000000100000001000000010000000100000001000000010000000100000001000000010000000100000001000000010000000100000001000000010000000100000000000010000100000000001000000010000000100000001001000000000000100000001000000010000000100000001000000010000100000000100000000010000000100000001000000010010000000000001000010000000000100000001000000010000000100000001000000010000000100010000000000010000000100000001001000000001000000000001000000010000000100000001000000010000000100000001000010000000000100000001000000010000000100000001000000010000000100111110111110111110111100100100100100100100100100100100100100100100100100100100100100100100100100100100100100100100100100100100100100100100100100100100100100100100100100100110110110110110110110110110110110110110110110110110110110110111110110110110110110110110110110110110110110110110110110110110110110110110110110110110110111110111111111111110111111111111111111110111111111111111110111110111111111111111111111111111111111110111111111111111111111111110111111111111111111111111111111111111111111111111111111111111111111111111111111111111111111111111111111111111111111111111111111111111111111111111111111111111111111111111111111111111111111111111111111111111111111111111111111111111111111111111111111111111111111111111111111111111111111111111111111111111111111111111111111111111111111111111111111111111111111111111111111111111111111111111111111111111111111111111111111111111111111111111111111111111111111111111111111111111111111111111111111111111111111111111111111111111111111111111111111111111111111111111111111111111111111111111111111111111111111111111111111111111111111111111111111111111111111111111111111111111111111111111111111111111111111111111111111111111111111111111111111111111111111111111111111111111111111111111111111111000000000000000000000000000000000000000000000000000000000000000000000000000000000000000000000000000000000000000000000000000000000000000000000000000000000000000000000000000000000000000000000000000000000000000000000000000000000000000000000000000000000000000000000000000000000000000000000000000000000000000000000000000000000000000000000000000000000000000000000000000000000000000000000000000000000000000000000000000000000000000000000000000000000000000000000000000000001111111111111111111111111111111111110000000000000000000000000000000000000000000000000000000000000000000000000000000000000000000000000000000000000000000000000000000000000000000000000000000000000000000000000000000000000000000000000000000000000000000000000000000000000000000000000000000000000000000000000000000000000000000000000000000000000000000000000000000000000000000000000000000000000000000000000000000000000000000000000000000000000000000000000000000000000000000000000000000000000000000000000000000000000000000000000000000000000000000000000000000000000000000000000000000000000000000000000000000000000000000000000000000000000000000000000000000000000000000000000000000000000000000000000000000000000000000000000000000000000000000000000000000000000000000000000000000000000000000000000000000000000000000000000000000000000000000000000000000000000000000000000000000000000000000000000000000000000000000000000000000000000000000000000000000000000000000000000000000000000000000000000000000000000000000000000000000000000000000000000000000000000000000000000000000000000000000000000000000000000000000000000000000000000000000000000000000000000000000000000000000000000000000000000000000000000000000000000000000000000000000000000000000
